PROBLEM NAME: eil51_n6
KNAPSACK DATA TYPE: multiple strongly correlated
DIMENSION: 6
NUMBER OF ITEMS: 50
CAPACITY OF KNAPSACK: 2590
MIN SPEED: 0.1
MAX SPEED: 1
RENTING RATIO: 9.80
EDGE_WEIGHT_TYPE: CEIL_2D
NODE_COORD_SECTION	(INDEX, X, Y):
1	31	62
2	52	41
3	27	23
4	57	58
5	62	42
6	43	67
ITEMS SECTION	(INDEX, PROFIT, WEIGHT, ASSIGNED NODE NUMBER):
1	1197	997	6
2	1194	994	6
3	1192	992	6
4	1143	943	6
5	1131	931	6
6	1108	908	6
7	1093	893	6
8	1074	874	6
9	1026	726	6
10	1020	720	6
11	1015	815	4
12	994	794	4
13	991	791	4
14	989	789	4
15	972	772	4
16	966	766	4
17	964	764	4
18	924	724	4
19	907	707	4
20	900	700	4
21	867	667	5
22	849	649	5
23	833	633	5
24	817	617	5
25	798	598	5
26	769	569	5
27	744	544	5
28	739	539	5
29	737	537	5
30	736	536	5
31	713	513	2
32	706	506	2
33	687	487	2
34	657	457	2
35	646	446	2
36	628	428	2
37	622	422	2
38	619	419	2
39	616	416	2
40	559	359	2
41	534	334	3
42	503	303	3
43	437	237	3
44	396	196	3
45	331	131	3
46	316	116	3
47	294	94	3
48	281	81	3
49	258	58	3
50	207	7	3
